NAME : A-n65-k9
COMMENT : (Augerat et al, Min no of trucks: 9, Best value: 1177)
TYPE : CVRP
DIMENSION : 65
EDGE_WEIGHT_TYPE : EUC_2D 
CAPACITY : 100
NODE_COORD_SECTION 
 1 25 51
 2 35 7
 3 93 75
 4 53 95
 5 51 81
 6 51 55
 7 1 67
 8 9 23
 9 75 7
 10 15 97
 11 79 5
 12 9 19
 13 39 1
 14 47 1
 15 33 97
 16 27 83
 17 83 79
 18 17 59
 19 47 19
 20 57 9
 21 87 41
 22 55 25
 23 21 91
 24 21 13
 25 67 1
 26 59 21
 27 1 75
 28 33 85
 29 25 21
 30 45 29
 31 63 77
 32 1 77
 33 77 41
 34 35 11
 35 9 77
 36 61 87
 37 59 91
 38 63 79
 39 97 67
 40 9 45
 41 93 21
 42 83 71
 43 95 57
 44 31 69
 45 77 17
 46 63 57
 47 3 63
 48 11 69
 49 7 9
 50 37 65
 51 75 83
 52 15 53
 53 69 5
 54 69 27
 55 5 19
 56 49 31
 57 77 17
 58 15 7
 59 91 39
 60 79 17
 61 67 75
 62 93 51
 63 25 33
 64 9 19
 65 3 65
DEMAND_SECTION 
1 0 
2 12 
3 24 
4 16 
5 7 
6 9 
7 20 
8 10 
9 18 
10 26 
11 17 
12 2 
13 11 
14 9 
15 12 
16 11 
17 12 
18 23 
19 7 
20 1 
21 26 
22 10 
23 9 
24 22 
25 21 
26 17 
27 2 
28 15 
29 16 
30 14 
31 23 
32 24 
33 2 
34 12 
35 18 
36 5 
37 19 
38 15 
39 8 
40 6 
41 14 
42 13 
43 5 
44 24 
45 25 
46 2 
47 8 
48 14 
49 2 
50 13 
51 10 
52 6 
53 6 
54 24 
55 21 
56 20 
57 24 
58 4 
59 19 
60 14 
61 23 
62 2 
63 16 
64 23 
65 14 
DEPOT_SECTION 
 1  
 -1  
NODE_PRIORITY_SECTION
1 0
2 4
3 3
4 1
5 2
6 2
7 3
8 2
9 2
10 1
11 2
12 2
13 4
14 4
15 1
16 3
17 3
18 3
19 5
20 4
21 1
22 4
23 2
24 3
25 3
26 4
27 3
28 2
29 3
30 4
31 3
32 3
33 1
34 4
35 4
36 2
37 2
38 3
39 2
40 1
41 1
42 4
43 2
44 3
45 2
46 3
47 3
48 4
49 1
50 2
51 3
52 2
53 3
54 3
55 1
56 4
57 2
58 2
59 1
60 2
61 4
62 2
63 3
64 2
65 3
EOF
